peakDumbCharging = 7400; 
Machine = anon_enum(16); 
machineSpeed = [3700,3700,3700,3700,3700,3700,3700,3700,3700,3700,3700,3700,3700,3700,3700,3700]; 
machineLoad = [3700,3700,3700,3700,3700,3700,3700,3700,3700,3700,3700,3700,3700,3700,3700,3700]; 
Car = anon_enum(7); 
demandCar = [20760,7640,5000,6720,5320,32400,3880]; 
arrivalCar = [71,67,61,57,48,42,39]; 
departureCar = [81,70,63,60,66,65,42]; 
